Restricted license - for non-production use only - expires 2026-11-23
original problem has 2 variables (0 bin, 1 int, 0 impl, 1 cont) and 2 constraints
presolving:
(round 1, fast)       1 del vars, 1 del conss, 0 add conss, 3 chg bounds, 0 chg sides, 0 chg coeffs, 1 upgd conss, 0 impls, 0 clqs
(round 2, fast)       1 del vars, 2 del conss, 0 add conss, 4 chg bounds, 0 chg sides, 0 chg coeffs, 1 upgd conss, 0 impls, 0 clqs
presolving (3 rounds: 3 fast, 1 medium, 1 exhaustive):
 2 deleted vars, 2 deleted constraints, 0 added constraints, 4 tightened bounds, 0 added holes, 0 changed sides, 0 changed coefficients
 0 implications, 0 cliques
transformed 1/1 original solutions to the transformed problem space
Presolving Time: 0.00

SCIP Status        : problem is solved [optimal solution found]
Solving Time (sec) : 0.00
Solving Nodes      : 0
Primal Bound       : -1.36900000000000e+03 (1 solutions)
Dual Bound         : -1.36900000000000e+03
Gap                : 0.00 %
